% number of games is 40

num = 40;
cap = 5;
refill = 2;
fun = [-7, 16, 13, -18, -6, -18, 12, 4, 6, 4, 16, -7, 11, 15, -6, -18, -7, -17, -1, 11, 10, -5, -19, 0, -7, 15, -3, 14, -5, 19, 0, 10, -5, 16, 8, 7, 10, 8, -7, 0];
